c Random 4-CNF over 30 variables and 60 clauses
c Generated with `cnfgen`
c (C) 2012-2016 Massimo Lauria <lauria.massimo@gmail.com>
c https://massimolauria.github.io/cnfgen
c
c COMMAND LINE: cnfgen --output tmp-4-30-60.dimacs --output-format dimacs randkcnf 4 30 60
c
c sdimacs generated by gen-sdimacs
c
p cnf 30 60
r 0.5 1 2 3 4 5 6 7 8 9 10 11 12 13 14 15 0
e  16 17 18 19 20 21 22 23 24 25 26 27 28 29 30 0
-10 -13 -28 30 0
1 -19 -20 -28 0
-16 20 -21 -27 0
2 8 19 24 0
-11 13 -19 30 0
-2 4 -18 29 0
3 9 -27 28 0
12 14 -17 25 0
-1 5 -14 -21 0
1 3 -7 -20 0
-8 16 23 -28 0
12 -18 21 30 0
3 8 28 -30 0
-4 -7 -22 25 0
4 9 13 -25 0
17 21 -25 -28 0
-11 19 -21 27 0
-2 -7 14 21 0
4 -16 20 21 0
3 -6 13 18 0
-3 7 18 22 0
-11 12 13 25 0
4 13 18 23 0
2 -6 -19 -21 0
3 8 22 26 0
6 15 18 -20 0
-12 -17 19 27 0
-8 18 -20 21 0
-7 10 11 -12 0
9 -12 -16 -27 0
7 9 14 28 0
-12 18 -26 -30 0
-3 -7 19 -26 0
16 20 -28 -29 0
7 15 18 -22 0
-1 -8 -15 18 0
3 8 -11 -26 0
1 3 -6 26 0
-4 5 6 -15 0
15 16 26 -28 0
7 10 14 -21 0
-3 7 -15 21 0
-14 -22 24 27 0
-7 -11 -13 -27 0
4 14 -18 -25 0
-1 13 -17 23 0
-2 -15 21 25 0
8 9 15 30 0
-13 -20 -22 -29 0
-2 -9 -18 28 0
2 15 27 -30 0
3 -7 19 -26 0
-7 13 16 -26 0
-10 -11 -14 -21 0
5 -15 20 27 0
10 -18 -20 -29 0
2 -11 -23 30 0
10 -15 -22 27 0
9 -16 -21 -30 0
-1 8 14 19 0
